MARKOV
13
3 3 3 9 2 2 3 18 18 2 9 6 3 
26
1 0
1 1
1 2
1 3
1 4
1 5
1 6
1 7
1 8
1 9
1 10
1 11
1 12
2 3 5
2 4 5
2 3 6
2 0 8
2 6 8
2 7 8
2 8 10
2 0 11
2 6 11
2 8 11
2 10 11
2 8 12
2 11 12

3
0.001204 0.029769 1.000000 
3
0.118130 0.000001 0.154945 
3
1.000000 0.000011 0.078751 
9
0.000000 0.000000 0.000000 1.000000 0.000942 0.000004 0.000001 0.407099 0.000008 
2
0.001631 1.000000 
2
0.055360 1.000000 
3
0.000001 0.000001 1.000000 
18
0.000001 0.000001 0.000001 0.000001 0.000001 0.000001 0.000002 0.000001 0.000001 0.000202 0.000214 0.000001 0.000009 0.000044 1.000000 0.000039 0.000001 0.000180 
18
0.000001 0.000001 0.000001 0.000001 0.000001 0.000001 0.000001 0.000001 0.023705 0.000012 0.000001 0.000001 0.000001 0.738667 0.008474 0.000001 0.009701 0.000011 
2
0.341154 1.000000 
9
0.000001 0.000067 0.000042 0.007630 0.000149 0.000004 0.000052 1.000000 0.042911 
6
0.000001 0.000001 0.197179 0.001099 1.000000 0.002452 
3
0.000055 0.001409 1.000000 
18
1.000000 1.000000 1.000000 1.000000 1.000000 1.000000 1.000000 1.000000 0.000001 0.000113 0.000001 0.000099 1.000000 1.000000 1.000000 1.000000 1.000000 1.000000 
4
0.001259 0.000549 1.000000 1.000000 
27
0.000001 1.000000 0.000001 0.000001 1.000000 0.000001 0.000001 1.000000 0.000026 1.000000 1.000000 0.686339 1.000000 1.000000 1.000000 1.000000 1.000000 1.000000 1.000000 1.000000 1.000000 1.000000 1.000000 1.000000 1.000000 1.000000 1.000000 
54
1.000000 1.000000 1.000000 1.000000 1.000000 1.000000 1.000000 1.000000 1.000000 1.000000 1.000000 1.000000 1.000000 1.000000 1.000000 1.000000 1.000000 1.000000 0.000001 0.000001 0.000001 0.000001 0.000001 0.000001 1.000000 1.000000 1.000000 1.000000 1.000000 1.000000 1.000000 1.000000 1.000000 1.000000 1.000000 1.000000 1.000000 1.000000 1.000000 1.000000 1.000000 1.000000 1.000000 1.000000 1.000000 1.000000 1.000000 1.000000 1.000000 1.000000 1.000000 1.000000 1.000000 1.000000 
54
1.000000 1.000000 1.000000 1.000000 1.000000 1.000000 1.000000 1.000000 1.000000 1.000000 1.000000 1.000000 1.000000 1.000000 1.000000 1.000000 1.000000 1.000000 0.002827 1.000000 1.000000 0.002221 1.000000 1.000000 1.000000 1.000000 1.000000 1.000000 1.000000 1.000000 1.000000 1.000000 1.000000 1.000000 1.000000 1.000000 1.000000 1.000000 1.000000 1.000000 1.000000 1.000000 1.000000 1.000000 1.000000 1.000000 1.000000 1.000000 1.000000 1.000000 1.000000 1.000000 1.000000 1.000000 
324
1.000000 1.000000 1.000000 1.000000 1.000000 1.000000 1.000000 1.000000 1.000000 1.000000 1.000000 1.000000 0.000391 0.000007 0.471356 0.258588 0.000002 0.012583 1.000000 1.000000 1.000000 1.000000 1.000000 1.000000 1.000000 1.000000 1.000000 1.000000 1.000000 1.000000 0.069707 0.161570 1.000000 1.000000 0.000669 1.000000 0.276968 1.000000 1.000000 1.000000 1.000000 1.000000 1.000000 1.000000 1.000000 1.000000 1.000000 1.000000 1.000000 0.000283 1.000000 1.000000 0.000004 1.000000 1.000000 1.000000 1.000000 1.000000 1.000000 1.000000 1.000000 1.000000 1.000000 1.000000 1.000000 1.000000 0.000012 0.000001 0.003476 0.000164 0.000001 0.000005 1.000000 1.000000 1.000000 1.000000 1.000000 1.000000 1.000000 1.000000 1.000000 1.000000 1.000000 1.000000 0.000045 0.000045 1.000000 0.009371 0.000007 1.000000 0.062837 1.000000 1.000000 1.000000 1.000000 1.000000 1.000000 1.000000 1.000000 1.000000 1.000000 1.000000 0.031024 0.000025 1.000000 1.000000 0.000001 0.554200 1.000000 1.000000 1.000000 1.000000 1.000000 1.000000 1.000000 1.000000 1.000000 1.000000 1.000000 1.000000 1.000000 1.000000 1.000000 1.000000 1.000000 1.000000 1.000000 1.000000 1.000000 1.000000 1.000000 1.000000 1.000000 1.000000 1.000000 1.000000 1.000000 1.000000 1.000000 1.000000 1.000000 1.000000 1.000000 1.000000 1.000000 1.000000 1.000000 1.000000 1.000000 1.000000 1.000000 1.000000 1.000000 1.000000 1.000000 1.000000 1.000000 1.000000 1.000000 1.000000 1.000000 1.000000 1.000000 1.000000 1.000000 1.000000 1.000000 1.000000 1.000000 1.000000 1.000000 1.000000 1.000000 1.000000 1.000000 1.000000 1.000000 1.000000 1.000000 1.000000 1.000000 1.000000 1.000000 1.000000 1.000000 1.000000 1.000000 1.000000 1.000000 1.000000 1.000000 1.000000 1.000000 1.000000 1.000000 1.000000 1.000000 1.000000 1.000000 1.000000 1.000000 1.000000 1.000000 1.000000 1.000000 1.000000 1.000000 1.000000 1.000000 1.000000 1.000000 1.000000 1.000000 1.000000 1.000000 1.000000 1.000000 1.000000 1.000000 1.000000 1.000000 1.000000 1.000000 1.000000 1.000000 1.000000 1.000000 1.000000 1.000000 1.000000 1.000000 1.000000 1.000000 1.000000 1.000000 1.000000 1.000000 1.000000 1.000000 1.000000 1.000000 1.000000 1.000000 1.000000 1.000000 1.000000 1.000000 1.000000 1.000000 1.000000 1.000000 1.000000 1.000000 1.000000 1.000000 1.000000 1.000000 1.000000 1.000000 1.000000 1.000000 1.000000 1.000000 1.000000 1.000000 1.000000 1.000000 1.000000 1.000000 1.000000 1.000000 1.000000 1.000000 1.000000 1.000000 1.000000 1.000000 1.000000 1.000000 1.000000 1.000000 1.000000 1.000000 1.000000 1.000000 1.000000 1.000000 1.000000 1.000000 1.000000 1.000000 1.000000 1.000000 1.000000 1.000000 1.000000 1.000000 1.000000 1.000000 1.000000 1.000000 1.000000 1.000000 1.000000 1.000000 1.000000 1.000000 1.000000 1.000000 1.000000 1.000000 1.000000 1.000000 1.000000 1.000000 1.000000 1.000000 1.000000 1.000000 1.000000 1.000000 1.000000 1.000000 1.000000 
162
1.000000 1.000000 1.000000 1.000000 1.000000 1.000000 1.000000 1.000000 1.000000 1.000000 1.000000 1.000000 1.000000 1.000000 1.000000 1.000000 1.000000 1.000000 1.000000 1.000000 1.000000 1.000000 1.000000 1.000000 1.000000 1.000000 1.000000 1.000000 1.000000 1.000000 1.000000 1.000000 1.000000 1.000000 1.000000 1.000000 1.000000 1.000000 1.000000 1.000000 1.000000 1.000000 1.000000 1.000000 1.000000 1.000000 1.000000 1.000000 1.000000 1.000000 1.000000 1.000000 1.000000 1.000000 0.088040 0.001048 0.018782 1.000000 1.000000 1.000000 1.000000 1.000000 1.000000 1.000000 0.140744 1.000000 1.000000 1.000000 1.000000 1.000000 1.000000 1.000000 0.000026 0.000027 0.000025 1.000000 1.000000 1.000000 1.000000 1.000000 1.000000 0.000120 0.000045 0.000045 1.000000 1.000000 1.000000 1.000000 1.000000 1.000000 1.000000 0.027231 0.465420 1.000000 1.000000 1.000000 1.000000 1.000000 1.000000 0.010347 0.000123 0.432533 1.000000 1.000000 1.000000 1.000000 1.000000 1.000000 1.000000 1.000000 1.000000 1.000000 1.000000 1.000000 1.000000 1.000000 1.000000 1.000000 1.000000 1.000000 1.000000 1.000000 1.000000 1.000000 1.000000 1.000000 1.000000 1.000000 1.000000 1.000000 1.000000 1.000000 1.000000 1.000000 1.000000 1.000000 1.000000 1.000000 1.000000 1.000000 1.000000 1.000000 1.000000 1.000000 1.000000 1.000000 1.000000 1.000000 1.000000 1.000000 1.000000 1.000000 1.000000 1.000000 1.000000 1.000000 1.000000 1.000000 1.000000 1.000000 1.000000 1.000000 
18
0.231044 0.299829 0.090314 1.000000 1.000000 1.000000 0.000001 0.000001 1.000000 1.000000 1.000000 1.000000 1.000000 1.000000 1.000000 1.000000 1.000000 1.000000 
18
1.000000 1.000000 1.000000 1.000000 1.000000 1.000000 1.000000 0.710759 1.000000 1.000000 1.000000 1.000000 1.000000 1.000000 1.000000 1.000000 1.000000 1.000000 
108
0.000001 0.000001 1.000000 1.000000 1.000000 1.000000 0.000001 0.000001 1.000000 1.000000 1.000000 1.000000 0.000001 0.000001 1.000000 1.000000 1.000000 1.000000 0.000001 0.000001 1.000000 1.000000 1.000000 1.000000 0.000001 0.000001 1.000000 1.000000 1.000000 1.000000 0.000001 0.000001 1.000000 1.000000 1.000000 1.000000 0.000001 0.000001 1.000000 1.000000 0.000001 0.000001 0.000001 0.000001 1.000000 1.000000 0.000001 0.000001 0.000001 0.000001 1.000000 1.000000 0.000001 0.000001 0.000001 0.000001 1.000000 1.000000 0.000001 0.000001 0.000001 0.000001 1.000000 1.000000 0.000001 0.000001 0.000001 0.000001 1.000000 1.000000 0.000001 0.000001 0.000001 1.000000 1.000000 1.000000 1.000000 1.000000 0.000001 1.000000 1.000000 1.000000 1.000000 1.000000 0.000001 0.225577 1.000000 1.000000 1.000000 1.000000 0.000001 1.000000 1.000000 1.000000 1.000000 1.000000 0.000001 1.000000 1.000000 1.000000 1.000000 1.000000 0.000001 1.000000 1.000000 1.000000 1.000000 1.000000 
54
1.000000 1.000000 1.000000 1.000000 0.000001 0.004080 1.000000 1.000000 1.000000 1.000000 0.233936 1.000000 1.000000 1.000000 1.000000 1.000000 0.001679 1.000000 1.000000 1.000000 1.000000 1.000000 1.000000 1.000000 1.000000 1.000000 1.000000 1.000000 1.000000 1.000000 1.000000 1.000000 1.000000 1.000000 1.000000 1.000000 1.000000 1.000000 1.000000 1.000000 1.000000 1.000000 1.000000 1.000000 1.000000 1.000000 1.000000 1.000000 1.000000 1.000000 1.000000 1.000000 1.000000 1.000000 
54
1.000000 1.000000 0.000045 1.000000 1.000000 0.000231 1.000000 1.000000 1.000000 1.000000 1.000000 0.000045 1.000000 1.000000 0.000023 1.000000 1.000000 0.120331 1.000000 1.000000 1.000000 1.000000 1.000000 1.000000 1.000000 1.000000 1.000000 1.000000 1.000000 1.000000 1.000000 1.000000 1.000000 1.000000 1.000000 1.000000 1.000000 1.000000 1.000000 1.000000 1.000000 1.000000 1.000000 1.000000 1.000000 1.000000 1.000000 1.000000 1.000000 1.000000 1.000000 1.000000 1.000000 1.000000 
18
1.000000 1.000000 0.000001 0.001305 1.000000 0.000001 1.000000 1.000000 1.000000 1.000000 1.000000 1.000000 1.000000 1.000000 1.000000 1.000000 1.000000 1.000000 
